This is Ipopt version 3.14.11, running with linear solver MUMPS 5.4.1.

Number of nonzeros in equality constraint Jacobian...:    76200
Number of nonzeros in inequality constraint Jacobian.:        0
Number of nonzeros in Lagrangian Hessian.............:        0

Total number of variables............................:      300
                     variables with only lower bounds:      100
                variables with lower and upper bounds:       50
                     variables with only upper bounds:        0
Total number of equality constraints.................:      254
Total number of inequality constraints...............:        0
        inequality constraints with only lower bounds:        0
   inequality constraints with lower and upper bounds:        0
        inequality constraints with only upper bounds:        0

iter    objective    inf_pr   inf_du lg(mu)  ||d||  lg(rg) alpha_du alpha_pr  ls
   0  2.9030180e+00 1.47e+02 2.00e+00   0.0 0.00e+00    -  0.00e+00 0.00e+00   0
   1r 2.9030180e+00 1.47e+02 9.99e+02   0.5 0.00e+00    -  0.00e+00 3.92e-07R 10
   2r 2.6413795e+00 5.10e+01 9.96e+02   2.4 7.53e+02    -  8.22e-03 2.16e-03f  1
   3r 3.5083835e+00 2.21e+01 9.79e+02   2.2 5.52e+01    -  4.64e-02 1.53e-02f  1
   4  3.5470918e+00 2.17e+01 2.00e+00  -5.8 3.43e+03    -  2.56e-01 1.58e-02h  3
   5  3.5535105e+00 2.17e+01 7.23e+00  -0.6 3.64e+03    -  3.18e-01 1.89e-03h  7
   6  3.6829867e+00 2.11e+01 1.49e+01  -0.1 3.76e+03    -  4.55e-01 2.49e-02h  4
   7  3.7494034e+00 2.10e+01 3.98e+02  -0.2 3.11e+03    -  9.92e-03 4.52e-03h  1
   8  3.8969933e+00 2.10e+01 6.09e+02  -0.9 3.39e+03    -  5.88e-02 3.97e-03h  4
   9  3.9030675e+00 2.10e+01 6.09e+02  -0.9 3.24e+03    -  6.86e-02 5.29e-04h  7
iter    objective    inf_pr   inf_du lg(mu)  ||d||  lg(rg) alpha_du alpha_pr  ls
  10  3.9622584e+00 2.09e+01 6.12e+02  -0.9 3.20e+03    -  1.74e-01 4.34e-03h  4
  11  3.9738999e+00 2.09e+01 6.12e+02  -0.9 3.46e+03    -  1.56e-01 4.10e-04h  8
  12  3.9804114e+00 2.08e+01 2.90e+03  -0.9 3.23e+03    -  1.51e-02 3.61e-04h  1
  13  4.0226300e+00 2.08e+01 2.79e+03  -0.9 3.25e+03    -  4.70e-02 1.52e-03h  5
  14  4.0246975e+00 2.08e+01 2.38e+03  -0.9 3.59e+03    -  1.43e-01 2.31e-04h  9
  15  4.0271898e+00 2.08e+01 1.96e+03  -0.9 3.67e+03    -  1.72e-01 3.24e-04h  9
  16r 4.0271898e+00 2.08e+01 1.00e+03   0.3 0.00e+00    -  0.00e+00 3.14e-07R 20
  17r 6.0944454e+00 1.01e+01 9.84e+02   2.0 1.32e+02    -  2.37e-02 1.44e-02f  1
  18  6.0965988e+00 1.01e+01 7.39e+02  -6.2 3.20e+03    -  4.42e-03 1.21e-04h  1
  19  6.3156132e+00 9.83e+00 3.56e+02  -0.5 3.63e+03    -  5.69e-01 2.83e-02h  1
iter    objective    inf_pr   inf_du lg(mu)  ||d||  lg(rg) alpha_du alpha_pr  ls
  20  6.3386295e+00 9.72e+00 2.67e+02  -1.1 3.68e+03    -  3.10e-01 1.10e-02h  5
  21  7.7070762e+00 8.21e+00 9.38e+02  -0.4 3.36e+03    -  6.79e-01 1.56e-01f  1
  22  7.7048811e+00 8.20e+00 9.47e+02  -0.3 2.67e+03    -  6.76e-04 7.89e-04h  1
  23  7.7536553e+00 8.17e+00 1.00e+03  -0.3 2.67e+03    -  1.09e-01 4.18e-03h  1
  24  9.8720210e+00 7.14e+00 2.83e+03  -0.3 3.14e+03    -  2.35e-01 1.25e-01f  1
  25  1.0223920e+01 6.89e+00 3.23e+03  -0.3 2.96e+03    -  1.17e-01 3.62e-02f  3
  26  1.0224626e+01 6.88e+00 3.24e+03  -0.3 2.38e+03    -  1.34e-03 6.72e-04h  2
  27  1.0248370e+01 6.87e+00 3.26e+03  -0.3 2.28e+03    -  2.63e-01 1.80e-03h  2
  28  1.0551562e+01 6.76e+00 3.53e+03  -0.3 2.82e+03    -  3.40e-01 1.61e-02h  4
  29  1.1010613e+01 6.65e+00 3.79e+03  -0.3 2.74e+03    -  5.55e-01 1.61e-02h  4
iter    objective    inf_pr   inf_du lg(mu)  ||d||  lg(rg) alpha_du alpha_pr  ls
  30  1.1010858e+01 6.65e+00 3.79e+03  -0.3 2.25e+03    -  2.32e-03 1.07e-04h  5
  31  1.1016065e+01 6.65e+00 3.79e+03  -0.3 2.53e+03    -  4.20e-01 1.24e-04h  8
  32  1.1368819e+01 6.57e+00 4.06e+03  -0.3 2.80e+03    -  3.41e-01 1.19e-02h  5
  33  1.1513665e+01 6.54e+00 4.16e+03  -0.3 2.77e+03    -  6.70e-01 4.78e-03h  7
  34  1.1513968e+01 6.54e+00 4.16e+03  -0.3 2.27e+03    -  2.99e-03 1.36e-04h  5
  35  1.1787951e+01 6.49e+00 4.39e+03  -0.3 2.33e+03    -  3.71e-02 7.49e-03h  1
  36  1.2931786e+01 6.21e+00 5.68e+03  -0.3 2.95e+03    -  9.48e-02 4.29e-02f  3
  37  1.5647688e+01 5.68e+00 8.02e+03  -0.3 2.93e+03    -  1.23e-01 8.46e-02h  2
  38  1.5660840e+01 5.66e+00 8.09e+03  -0.3 2.06e+03    -  1.37e-03 4.53e-03h  1
  39  1.5676456e+01 5.65e+00 8.13e+03  -0.3 1.77e+03    -  8.40e-02 1.24e-03h  1
iter    objective    inf_pr   inf_du lg(mu)  ||d||  lg(rg) alpha_du alpha_pr  ls
  40  1.5755491e+01 5.63e+00 8.10e+03  -0.3 3.54e+03    -  4.43e-02 3.03e-03f  6
  41  1.5763227e+01 5.63e+00 8.10e+03  -0.3 3.30e+03    -  5.08e-02 8.00e-04h  7
  42  1.6230631e+01 5.55e+00 8.03e+03  -0.3 2.92e+03    -  1.66e-01 1.40e-02f  4
  43  1.6506970e+01 5.47e+00 7.93e+03  -0.3 2.81e+03    -  2.85e-01 1.46e-02h  5
  44  1.8061380e+01 5.06e+00 7.41e+03  -0.3 3.23e+03    -  1.29e-01 7.54e-02h  3
  45  1.8212030e+01 5.01e+00 7.35e+03  -0.3 2.92e+03    -  2.93e-01 8.51e-03h  6
  46  1.8653365e+01 4.81e+00 7.09e+03  -0.3 2.99e+03    -  2.80e-01 3.99e-02h  4
  47  1.8940933e+01 4.66e+00 6.89e+03  -0.3 2.64e+03    -  2.15e-01 3.13e-02h  4
  48  1.9218578e+01 4.49e+00 6.66e+03  -0.3 2.59e+03    -  1.59e-01 3.77e-02f  3
  49  2.0342494e+01 4.31e+00 6.42e+03  -0.3 2.47e+03    -  4.00e-01 3.84e-02h  4
iter    objective    inf_pr   inf_du lg(mu)  ||d||  lg(rg) alpha_du alpha_pr  ls
  50  1.9926341e+01 4.01e+00 6.01e+03  -0.3 3.14e+03    -  2.12e-01 6.96e-02h  1
  51  2.0106732e+01 3.95e+00 5.92e+03  -1.0 2.30e+03    -  2.68e-01 1.65e-02h  5
  52  2.0495366e+01 3.75e+00 5.65e+03  -1.0 2.46e+03    -  4.50e-02 4.96e-02h  3
  53  2.0626643e+01 3.69e+00 5.56e+03  -1.0 2.25e+03    -  2.07e-01 1.75e-02h  3
  54  2.0643672e+01 3.68e+00 5.55e+03  -1.0 2.11e+03    -  1.86e-01 1.55e-03h  8
Exception of type: IpoptException in file "Unknown File" at line -1:
 Exception message: Unknown Exception caught in Ipopt
